10J3M/DAT/10J3MNNL-4.dat
10 3
27.8127 27.8127
22.3476 22.3476
26.1111 26.1111
20.4795 20.4795
23.0371 23.0371
24.8721 24.8721
25.4215 25.4215
25.8512 25.8512
15.5962 15.5962
15.3267 15.3267
226.8557